(set-logic BV) (define-fun origCir ((n111 Bool) (n112 Bool) (n160 Bool) (n128 Bool) (n156 Bool)) Bool (and (not (and (and n160 n128) (and n112 n111))) n156)) (synth-fun skel ((n111 Bool) (n112 Bool) (n160 Bool) (n128 Bool) (n156 Bool)) Bool) (declare-var n111 Bool) (declare-var n112 Bool) (declare-var n160 Bool) (declare-var n128 Bool) (declare-var n156 Bool) (constraint (= (origCir n111 n112 n160 n128 n156) (skel n111 n112 n160 n128 n156))) (check-synth)
